language Essence 1.3

letting pain be
        [[([(1, 3, 5), (2, 4, 6); int(3..4)], 9, 7),
          ([(1, 3, 5), (1, 3, 5); int(3..4)], 8, 7); int(2..3)],
         [([(2, 3, 6), (1, 4, 5); int(3..4)], 8, 7),
          ([(1, 3, 5), (1, 3, 5); int(3..4)], 8, 7); int(2..3)]; int(1..2)]
